10	5	2	0
0	1	10	1	10	9	8	4	3	7	5	6	2	[0 0 0 0 0]	[0 0 0 0 0]	[0 0 0 0 0]	[0 0 0 0 0]	[0 0 0 0 0]	[0 0 0 0 0]	[0 0 0 0 0]	[0 0 0 0 0]	[0 0 0 0 0]	[0 0 0 0 0]
1	5	2	11	9	[5 1 8 3 7]	[-1 -3 10 2 10 3 2 2 0 1 17 0 14 22 19 4 -2 -2 7 9 21 18 12 20 4]
2	5	4	6	11	7	10	[0 5 6 3 1 -4 6 1 -1 16 12 20 15 12 12 23 12 -8 -6 14 3 1 -1 -1 3]	[2 6 8 10 2]	[-1 4 4 5 0 9 9 2 -4 11 3 -7 0 20 3 8 10 30 13 22 5 5 0 3 2]	[1 6 4 -1 5 11 -4 6 4 16 23 -2 -1 -7 -2 8 13 16 1 11 5 0 4 5 4]
3	5	4	11	8	6	10	[6 5 2 10 8]	[-2 -4 6 9 9 -4 -4 11 13 0 4 3 0 3 4 25 25 26 29 12 10 6 21 3 0]	[15 11 0 12 3 4 10 0 12 12 1 6 5 0 2 20 18 22 3 1 10 9 -4 2 0]	[3 4 -3 10 13 10 13 9 12 9 6 3 3 2 1 -4 -1 0 25 30 6 4 15 0 0]
4	5	3	11	8	10	[9 4 2 4 5]	[-2 19 -3 12 6 -1 2 9 -1 7 2 6 5 0 1 -3 -1 5 3 0 0 1 10 0 13]	[5 14 4 4 -8 8 0 -2 1 0 0 6 4 1 2 6 7 11 2 11 -3 -1 6 12 0]
5	5	4	7	9	11	10	[1 4 1 5 -2 6 0 3 6 2 -2 4 -2 2 10 5 3 0 3 -1 21 2 2 24 18]	[4 -1 9 -2 3 0 6 1 -1 2 2 -3 -2 -2 0 8 12 3 8 6 14 1 11 15 16]	[3 2 4 4 9]	[9 0 8 6 8 6 6 0 -1 1 6 11 -3 -3 11 8 10 7 2 0 18 24 5 17 -4]
6	5	2	3	11	[-59 -92 -87 -72 -64 -46 -96 -52 -92 -68 -103 -52 -87 -98 -80 -90 -84 -86 -94 -104 -61 -38 -42 -76 -100]	[8 7 3 1 8]
7	5	3	2	5	11	[-46 -44 -57 -43 -51 -56 -44 -87 -36 -42 -89 -41 -26 -75 -37 -70 -63 -67 -82 -71 -97 -54 -35 -89 -57]	[-95 -37 -85 -98 -38 -76 -68 -63 -55 -100 -78 -91 -56 -50 -96 -31 -98 -63 -43 -32 -60 -31 -52 -80 -89]	[5 5 2 7 10]
8	5	1	11	[6 6 5 1 4]
9	5	1	11	[1 6 9 5 6]
10	5	4	5	3	11	4	[-71 -64 -81 -36 -35 -81 -74 -66 -83 -64 -65 -105 -53 -106 -83 -88 -97 -36 -47 -28 -64 -60 -56 -103 -91]	[-45 -34 -83 -54 -74 -103 -44 -26 -88 -60 -49 -56 -66 -48 -27 -108 -99 -100 -66 -108 -47 -68 -67 -51 -79]	[2 5 6 1 5]	[-88 -87 -100 -33 -37 -54 -49 -54 -81 -42 -74 -61 -86 -30 -39 -89 -25 -63 -41 -78 -95 -100 -40 -98 -90]
11	1	0
0	1	0	0	0	0	0	0	0	0
1	1	5	5	5	5	4	1	5	5
	2	1	5	5	5	4	1	5	5
	3	8	5	5	5	4	1	5	5
	4	3	5	5	5	4	1	5	5
	5	7	5	5	5	4	1	5	5
2	1	2	2	4	4	1	1	2	3
	2	6	2	4	4	1	1	2	3
	3	8	2	4	4	1	1	2	3
	4	10	2	4	4	1	1	2	3
	5	2	2	4	4	1	1	2	3
3	1	6	5	2	3	5	5	2	1
	2	5	5	2	3	5	5	2	1
	3	2	5	2	3	5	5	2	1
	4	10	5	2	3	5	5	2	1
	5	8	5	2	3	5	5	2	1
4	1	9	1	3	3	2	4	4	1
	2	4	1	3	3	2	4	4	1
	3	2	1	3	3	2	4	4	1
	4	4	1	3	3	2	4	4	1
	5	5	1	3	3	2	4	4	1
5	1	3	2	3	1	1	1	5	1
	2	2	2	3	1	1	1	5	1
	3	4	2	3	1	1	1	5	1
	4	4	2	3	1	1	1	5	1
	5	9	2	3	1	1	1	5	1
6	1	8	2	3	1	2	5	3	5
	2	7	2	3	1	2	5	3	5
	3	3	2	3	1	2	5	3	5
	4	1	2	3	1	2	5	3	5
	5	8	2	3	1	2	5	3	5
7	1	5	5	2	4	1	2	4	4
	2	5	5	2	4	1	2	4	4
	3	2	5	2	4	1	2	4	4
	4	7	5	2	4	1	2	4	4
	5	10	5	2	4	1	2	4	4
8	1	6	3	1	2	1	5	5	1
	2	6	3	1	2	1	5	5	1
	3	5	3	1	2	1	5	5	1
	4	1	3	1	2	1	5	5	1
	5	4	3	1	2	1	5	5	1
9	1	1	1	1	2	5	4	3	5
	2	6	1	1	2	5	4	3	5
	3	9	1	1	2	5	4	3	5
	4	5	1	1	2	5	4	3	5
	5	6	1	1	2	5	4	3	5
10	1	2	3	1	4	5	5	3	5
	2	5	3	1	4	5	5	3	5
	3	6	3	1	4	5	5	3	5
	4	1	3	1	4	5	5	3	5
	5	5	3	1	4	5	5	3	5
11	1	0	0	0	0	0	0	0	0
17	15	17	16	19	36	67
